Version identifier: 20.1.0.0 | 2020-11-10 | 9bedb6d68
CPXPARAM_Threads                                 1
CPXPARAM_TimeLimit                               7200
CPXPARAM_MIP_Tolerances_MIPGap                   0
Generic callback                                 0x60
1 of 1 MIP starts provided solutions.
MIP start 'm1' defined initial solution with objective 3563.5813.
Tried aggregator 1 time.
Reduced MIP has 1 rows, 801 columns, and 800 nonzeros.
Reduced MIP has 800 binaries, 0 generals, 0 SOSs, and 0 indicators.
Presolve time = 0.00 sec. (0.24 ticks)
Probing time = 0.00 sec. (0.09 ticks)
Tried aggregator 1 time.
Reduced MIP has 1 rows, 801 columns, and 800 nonzeros.
Reduced MIP has 800 binaries, 0 generals, 0 SOSs, and 0 indicators.
Presolve time = 0.00 sec. (0.25 ticks)
Probing time = 0.00 sec. (0.09 ticks)
MIP emphasis: balance optimality and feasibility.
MIP search method: dynamic search.
Parallel mode: none, using 1 thread.
Root relaxation solution time = 0.00 sec. (0.17 ticks)

        Nodes                                         Cuts/
   Node  Left     Objective  IInf  Best Integer    Best Bound    ItCnt     Gap

*     0+    0                         3563.5813     5432.0000            52.43%
      0     0     5432.0000     2     3563.5813     5432.0000        0   52.43%
      0     0     4554.6219     3     3563.5813 UserPurge2: 1       11   27.81%
      0     0     4141.5764     4     3563.5813 UserPurge2: 1       18   16.22%
      0     0     3980.9915     4     3563.5813 UserPurge2: 1       39   11.71%
      0     0     3907.1058     5     3563.5813 UserPurge2: 1       50    9.64%
      0     0     3888.1637     6     3563.5813 UserPurge2: 1       56    9.11%
      0     0     3879.6175     8     3563.5813 UserPurge2: 1       63    8.87%
      0     0     3859.3673     9     3563.5813 UserPurge2: 1       83    8.30%
      0     0     3832.4570     8     3563.5813 UserPurge2: 1      117    7.55%
      0     0     3827.8946     9     3563.5813 UserPurge1: 1      122    7.42%
      0     0     3823.1525    11     3563.5813 UserPurge1: 2      136    7.28%
      0     0     3809.5871    11     3563.5813 UserPurge2: 1      175    6.90%
      0     0     3792.5100    11     3563.5813 UserPurge2: 1      186    6.42%
*     0+    0                         3565.6501     3792.5100             6.36%
      0     0     3780.7975    10     3565.6501 UserPurge2: 1      211    6.03%
*     0+    0                         3603.4084     3780.7975             4.92%
      0     0     3771.4834    12     3603.4084 UserPurge2: 1      241    4.66%
      0     0     3764.2169    10     3603.4084 UserPurge2: 1      262    4.46%
      0     0     3760.5411    13     3603.4084 UserPurge1: 1      269    4.36%
      0     0     3744.4747     9     3603.4084 UserPurge2: 1      303    3.91%
      0     0     3734.3489     8     3603.4084 UserPurge2: 1      324    3.63%
      0     0     3733.2764    10     3603.4084 UserPurge1: 1      328    3.60%
      0     0     3732.7761    11     3603.4084 UserPurge1: 1      330    3.59%
      0     0     3730.0193    10     3603.4084 UserPurge2: 1      354    3.51%
      0     0     3726.1954    11     3603.4084 UserPurge2: 1      367    3.41%
      0     0     3721.4745    11     3603.4084 UserPurge2: 1      390    3.28%
      0     0     3716.3999    10     3603.4084 UserPurge2: 1      405    3.14%
      0     0     3714.2807     9     3603.4084 UserPurge2: 1      422    3.08%
      0     0     3712.4053     8     3603.4084 UserPurge2: 1      435    3.02%
      0     0     3711.2472     9     3603.4084 UserPurge2: 1      442    2.99%
      0     0     3709.5764    10     3603.4084 UserPurge2: 1      455    2.95%
      0     0     3708.7729    11     3603.4084 UserPurge2: 1      462    2.92%
      0     0     3706.4488    11     3603.4084 UserPurge2: 1      489    2.86%
      0     0     3701.8338    11     3603.4084 UserPurge2: 1      509    2.73%
      0     0     3699.9210    11     3603.4084 UserPurge2: 1      520    2.68%
      0     0     3698.4740    12     3603.4084 UserPurge2: 1      532    2.64%
      0     0     3697.0308    11     3603.4084 UserPurge2: 1      542    2.60%
      0     0     3695.8766    12     3603.4084 UserPurge2: 1      551    2.57%
      0     0     3693.3429    11     3603.4084 UserPurge2: 1      573    2.50%
      0     0     3693.0365    12     3603.4084 UserPurge2: 1      584    2.49%
      0     0     3692.1175    13     3603.4084 UserPurge2: 1      604    2.46%
      0     0     3691.3577    14     3603.4084 UserPurge2: 1      616    2.44%
      0     0     3689.6114    14     3603.4084 UserPurge2: 1      639    2.39%
      0     0     3687.2940    13     3603.4084 UserPurge2: 1      660    2.33%
      0     0     3686.1685    13     3603.4084 UserPurge2: 1      677    2.30%
      0     0     3685.7971    14     3603.4084 UserPurge2: 1      690    2.29%
      0     0     3685.3870    14     3603.4084 UserPurge2: 1      704    2.28%
      0     0     3685.0431    15     3603.4084 UserPurge2: 1      717    2.27%
      0     0     3682.5461    14     3603.4084 UserPurge2: 1      757    2.20%
      0     0     3682.3879    15     3603.4084 UserPurge2: 1      765    2.19%
      0     0     3680.0900    14     3603.4084 UserPurge2: 1      788    2.13%
      0     0     3678.1792    13     3603.4084 UserPurge2: 1      803    2.08%
      0     0     3677.7066    13     3603.4084 UserPurge2: 1      810    2.06%
      0     0     3676.8941    13     3603.4084 UserPurge2: 1      821    2.04%
      0     0     3676.5276    14     3603.4084 UserPurge2: 1      831    2.03%
      0     0     3676.2200    15     3603.4084 UserPurge2: 1      846    2.02%
      0     0     3676.0076    16     3603.4084 UserPurge2: 1      860    2.01%
      0     0     3675.2109    16     3603.4084 UserPurge2: 1      885    1.99%
      0     0     3674.7441    16     3603.4084 UserPurge2: 1      894    1.98%
*     0+    0                         3606.4012     3674.7441             1.90%
      0     0     3673.9777    17     3606.4012 UserPurge2: 1      908    1.87%
      0     0     3673.6017    18     3606.4012 UserPurge2: 1      920    1.86%
      0     0     3672.8134    18     3606.4012 UserPurge2: 1      945    1.84%
      0     0     3670.7167    16     3606.4012 UserPurge2: 1      972    1.78%
      0     0     3670.3082    15     3606.4012 UserPurge2: 1      987    1.77%
      0     0     3670.1369    16     3606.4012 UserPurge2: 1      997    1.77%
      0     0     3669.8302    16     3606.4012 UserPurge2: 1     1016    1.76%
      0     0     3669.6073    16     3606.4012 UserPurge2: 1     1034    1.75%
      0     0     3669.4013    17     3606.4012 UserPurge2: 1     1049    1.75%
      0     0     3669.0314    17     3606.4012 UserPurge2: 1     1072    1.74%
      0     0     3668.7638    16     3606.4012 UserPurge2: 1     1085    1.73%
      0     0     3668.7013    17     3606.4012 UserPurge2: 1     1094    1.73%
      0     0     3668.4619    17     3606.4012 UserPurge2: 1     1111    1.72%
      0     0     3668.3359    17     3606.4012 UserPurge2: 1     1120    1.72%
      0     0     3667.7624    17     3606.4012 UserPurge2: 1     1138    1.70%
*     0+    0                         3608.9630     3667.7624             1.63%
      0     0     3667.4351    17     3608.9630 UserPurge2: 1     1152    1.62%
      0     0     3666.7268    16     3608.9630 UserPurge2: 1     1172    1.60%
      0     0     3666.2171    17     3608.9630 UserPurge2: 1     1191    1.59%
      0     0     3665.8523    17     3608.9630 UserPurge2: 1     1207    1.58%
      0     0     3665.4586    18     3608.9630 UserPurge2: 1     1223    1.57%
      0     0     3665.3329    19     3608.9630 UserPurge2: 1     1234    1.56%
      0     0     3665.1121    19     3608.9630 UserPurge2: 1     1247    1.56%
      0     0     3664.8948    20     3608.9630 UserPurge2: 1     1264    1.55%
      0     0     3664.4670    19     3608.9630 UserPurge2: 1     1287    1.54%
      0     0     3664.0420    19     3608.9630 UserPurge2: 1     1306    1.53%
      0     0     3663.9498    20     3608.9630 UserPurge2: 1     1319    1.52%
      0     0     3663.7414    20     3608.9630 UserPurge2: 1     1339    1.52%
      0     0     3663.3979    20     3608.9630 UserPurge2: 1     1365    1.51%
      0     0     3662.6384    18     3608.9630 UserPurge2: 1     1385    1.49%
      0     0     3662.1586    18     3608.9630 UserPurge2: 1     1408    1.47%
      0     0     3662.1295    19     3608.9630 UserPurge2: 1     1416    1.47%
*     0+    0                         3613.8919     3662.1295             1.33%
      0     0     3662.1219    19     3613.8919 UserPurge2: 1     1420    1.33%
      0     0     3662.0445    20     3613.8919 UserPurge2: 1     1432    1.33%
      0     0     3661.8670    19     3613.8919 UserPurge2: 1     1443    1.33%
      0     0     3661.7457    20     3613.8919 UserPurge2: 1     1459    1.32%
      0     0     3661.7244    21     3613.8919 UserPurge2: 1     1467    1.32%
      0     0     3661.6170    21     3613.8919 UserPurge2: 1     1485    1.32%
      0     0     3661.4812    21     3613.8919 UserPurge2: 1     1506    1.32%
      0     0     3661.3495    22     3613.8919 UserPurge2: 1     1522    1.31%
      0     0     3661.2253    22     3613.8919 UserPurge2: 1     1544    1.31%
      0     0     3661.0225    23     3613.8919 UserPurge2: 1     1560    1.30%
      0     0     3660.8482    23     3613.8919 UserPurge2: 1     1585    1.30%
      0     0     3660.6893    23     3613.8919 UserPurge2: 1     1609    1.29%
      0     0     3660.3022    22     3613.8919 UserPurge2: 1     1648    1.28%
      0     0     3660.1487    22     3613.8919 UserPurge2: 1     1668    1.28%
      0     0     3660.0692    23     3613.8919 UserPurge2: 1     1692    1.28%
      0     0     3659.9010    24     3613.8919 UserPurge2: 1     1723    1.27%
      0     0     3659.4910    25     3613.8919 UserPurge2: 1     1754    1.26%
      0     0     3659.3511    24     3613.8919 UserPurge2: 1     1772    1.26%
      0     0     3658.8551    23     3613.8919 UserPurge2: 1     1797    1.24%
      0     0     3658.3365    22     3613.8919 UserPurge2: 1     1821    1.23%
      0     0     3658.1773    22     3613.8919 UserPurge2: 1     1840    1.23%
      0     0     3657.9677    21     3613.8919 UserPurge2: 1     1857    1.22%
      0     0     3657.7824    21     3613.8919 UserPurge2: 1     1873    1.21%
      0     0     3657.5860    21     3613.8919 UserPurge2: 1     1890    1.21%
      0     0     3657.0798    21     3613.8919 UserPurge2: 1     1909    1.20%
      0     0     3656.8899    21     3613.8919 UserPurge2: 1     1924    1.19%
      0     0     3656.6497    21     3613.8919 UserPurge2: 1     1943    1.18%
      0     0     3656.3877    21     3613.8919 UserPurge2: 1     1965    1.18%
      0     0     3656.0505    21     3613.8919 UserPurge2: 1     1989    1.17%
*     0+    0                         3632.0635     3656.0505             0.66%
*     0+    0                         3633.3831     3656.0505             0.62%
      0     2     3656.0505    21     3633.3831     3656.0474     1989    0.62%
Elapsed time = 102.34 sec. (724.48 ticks, tree = 0.01 MB, solutions = 8)
      1     3     3634.1039     7     3633.3831     3656.0474     3420    0.62%
      2     4     3642.2464    16     3633.3831     3642.2464    61893    0.24%
      3     5     3633.9742     2     3633.3831     3642.2464    62024    0.24%
      4     6     3633.9085     4     3633.3831     3642.2464    62089    0.24%
      6     5     3633.8831     4     3633.3831     3642.2464    62126    0.24%
      8     4     3633.8575     4     3633.3831     3642.2464    62147    0.24%
      9     4     3633.4189     2     3633.3831     3642.2464    62160    0.24%
     11     4     3642.1545     6     3633.3831     3642.2464    64088    0.24%
     12     5     3642.1430     8     3633.3831     3642.2464    65054    0.24%
     13     6     3637.4856     4     3633.3831     3642.2464    65876    0.24%
Elapsed time = 700.34 sec. (142605.87 ticks, tree = 0.13 MB, solutions = 8)
     14     7     3637.4745     4     3633.3831     3642.2464    66096    0.24%
     16     7     3637.4494     4     3633.3831     3642.2464    66569    0.24%
     18     7     3637.4312     4     3633.3831     3642.2464    66819    0.24%
*    20+    4                         3637.1815     3642.2464             0.14%
     20     6     3637.4032     4     3637.1815     3642.2464    67115    0.14%
     22     6     3637.3858     2     3637.1815     3642.2464    67464    0.14%
     25     7     3637.3796     9     3637.1815     3642.2464    67595    0.14%
*    30+    2                         3640.3747     3642.2464             0.05%
     30     4     3642.0255    40     3640.3747     3642.1429    86234    0.05%
     31     5     3641.6581    31     3640.3747     3642.1429   106422    0.05%
     32     6     3641.3142    30     3640.3747     3642.1429   130444    0.05%
     33     7     3641.1107    37     3640.3747     3642.1429   158481    0.05%
Elapsed time = 1811.73 sec. (620323.79 ticks, tree = 0.29 MB, solutions = 10)
     34     8     3640.6427    40     3640.3747     3642.1429   195721    0.05%
     35     7        cutoff           3640.3747     3642.1429   200753    0.05%
     37     7     3642.1372     4     3640.3747     3642.1388   201471    0.05%
     38     8     3642.1285     2     3640.3747     3642.1388   202210    0.05%
     39     9     3642.1254     7     3640.3747     3642.1388   202550    0.05%
*    40+    5                         3642.0111     3642.1388             0.00%
     40     7     3642.1113     6     3642.0111     3642.1388   204222    0.00%
     41     8     3642.1080     9     3642.0111     3642.1388   204616    0.00%
     42     8     3642.0211     2     3642.0111     3642.1388   204815    0.00%
     50     0        cutoff           3642.0111     3642.0111   204905    0.00%

User cuts applied:  16247

Root node processing (before b&c):
  Real time             =  102.36 sec. (761.84 ticks)
Sequential b&c:
  Real time             = 2420.97 sec. (975746.55 ticks)
                          ------------
Total (root+branch&cut) = 2523.33 sec. (976508.39 ticks)
@Parameters: 
is_S_cut                                true
is_add_all_yinF                         true
is_start_value                          true
is_usercut                              true
is_visualization                        false
uc_only_rootnode                        false

data                                    Qi
fn                                      data/Qi/instance_1000_800.csv
mode                                    NewSubmodular
solver                                  cplex

p                                       5
r                                       2

EPS                                     1.0e-06
EPS_vio                                 1.0e-04
beta                                    0.10
gap                                     0.00
nodelimit                               Inf
timelimit                               7200.00


@PrintInfos
ItCnt: 204905
Current gap: 0.00 %
Termination Status: OPTIMAL
Primal Status: FEASIBLE_POINT
Solve Time: 2523.33 sec
Objective Value: 3642.011125
Number of Nodes:     51

CutInfo: [phase] num / time (sec) 
ZLP             [phase1]     0 / 0.00 [rLC]     0 / 0.00 [rUC]     0 / 0.00 [sLC]     0 / 0.00 [sUC]     0 / 0.00 
OldSubmodular   [phase1]     0 / 0.00 [rLC]     0 / 0.00 [rUC]     0 / 0.00 [sLC]     0 / 0.00 [sUC]     0 / 0.00 
NewSubmodular   [phase1]     0 / 0.00 [rLC]   402 / 67.13 [rUC]   785 / 32.43 [sLC]     0 / 9.46 [sUC] 16203 / 1413.14 
PMP             [phase1]     0 / 0.00 [rLC]    19 / 55.35 [rUC]     0 / 0.00 [sLC]     3 / 9.40 [sUC]    56 / 175.06 
Separation Round: [phase1] 0  [rLC] 93  [rUC] 118  [sLC] 3  [sUC] 4672
Root Best Bound 3642.246368
Root Best Integer: 3633.383096
Best Bound: 3642.011125
Best Integer: 3642.011125

